words_train/words_751_SAT.qaiger
aag 25 16 0 1 9
26
28
18
30
32
16
22
2
6
20
4
12
10
24
14
8
51
34 11 9
36 34 19
38 13 5
40 38 36
42 17 15
44 21 2
46 44 7
48 46 42
50 48 40
i0 2 y[4]
i1 2 y[5]
i2 2 y[0]
i3 2 y[6]
i4 2 y[7]
i5 1 x[7]
i6 2 y[2]
i7 1 x[0]
i8 1 x[2]
i9 2 y[1]
i10 1 x[1]
i11 1 x[5]
i12 1 x[4]
i13 2 y[3]
i14 1 x[6]
i15 1 x[3]
o0 bool[0]
c
simplified
  !=
    or
      subtract
        1 x
        1
      << 6
        2 y
    >> 7
      1
