words_train/words_751_SAT.qaiger.qdimacs
p cnf 25 28
a 1 2 3 4 5 6 7 8 0
e 9 10 11 12 13 14 15 16 17 18 19 20 21 22 23 24 25 0
5 4 17 0
-5 -17 0
-4 -17 0
-17 9 18 0
17 -18 0
-9 -18 0
6 2 19 0
-6 -19 0
-2 -19 0
-19 -18 20 0
19 -20 0
18 -20 0
8 7 21 0
-8 -21 0
-7 -21 0
10 -1 22 0
-10 -22 0
1 -22 0
-22 3 23 0
22 -23 0
-3 -23 0
-23 -21 24 0
23 -24 0
21 -24 0
-24 -20 25 0
24 -25 0
20 -25 0
-25 0
